(set-logic ALL)
(declare-var x (BitVec 32))
(declare-var y (BitVec 32))
(declare-var x! (BitVec 32))
(declare-var y! (BitVec 32))
(synth-fun inv-f((parameter0 (BitVec 32))(parameter1 (BitVec 32)))Bool) 
(constraint (=> (and (= x (_ bv0 32)) (= y (_ bv1 32)) )(inv-f x y )))
(constraint (=> (and (inv-f x y ) (and (bvult x (_ bv6 32)) (and (= x! (bvadd x (_ bv1 32))) (= y! (bvmul y (_ bv2 32))) ) ) )(inv-f x! y! )))
(constraint (=> (inv-f x y )(or (bvult x (_ bv6 32)) (= x (_ bv6 32)) )))
(check-synth)

